Problem:    hamburger
Rows:       7
Columns:    3 (3 integer, 0 binary)
Non-zeros:  19
Status:     INTEGER OPTIMAL
Objective:  Income = 93500 (MAXimum)

   No.   Row name        Activity     Lower bound   Upper bound
------ ------------    ------------- ------------- -------------
     1 CantExceedDailyStock[Buci]
                                  71                         100 
     2 CantExceedDailyStock[Sajt]
                                4020                        5000 
     3 CantExceedDailyStock[Hus]
                               10000                       10000 
     4 CantExceedDailyStock[Ananasz]
                                  56                          60 
     5 CantExceedDailyStock[Szosz]
                                2000                        2700 
     6 RoyalAndBigMacGreaterThanOrEqualToAnanasz
                                  -1                          -0 
     7 Income                  93500                             

   No. Column name       Activity     Lower bound   Upper bound
------ ------------    ------------- ------------- -------------
     1 BurgerCount[Royal]
                    *             29             0               
     2 BurgerCount[BigMac]
                    *              0             0               
     3 BurgerCount[Ananasz]
                    *             28             0               

Integer feasibility conditions:

KKT.PE: max.abs.err = 0.00e+00 on row 0
        max.rel.err = 0.00e+00 on row 0
        High quality

KKT.PB: max.abs.err = 0.00e+00 on row 0
        max.rel.err = 0.00e+00 on row 0
        High quality

End of output
